c " random instance " 
p edges 200 2209
e 1 2
e 1 5
e 1 7
e 1 14
e 1 21
e 1 26
e 1 48
e 1 50
e 1 60
e 1 62
e 1 75
e 1 87
e 1 98
e 1 104
e 1 119
e 1 123
e 1 128
e 1 129
e 1 136
e 1 139
e 1 156
e 1 157
e 1 185
e 1 186
e 1 198
e 2 17
e 2 32
e 2 38
e 2 39
e 2 54
e 2 55
e 2 64
e 2 65
e 2 68
e 2 91
e 2 103
e 2 110
e 2 113
e 2 117
e 2 118
e 2 156
e 2 158
e 2 163
e 2 164
e 2 170
e 2 177
e 2 185
e 2 193
e 3 10
e 3 28
e 3 35
e 3 47
e 3 62
e 3 66
e 3 77
e 3 80
e 3 82
e 3 85
e 3 89
e 3 94
e 3 97
e 3 100
e 3 101
e 3 128
e 3 132
e 3 139
e 3 140
e 3 163
e 3 167
e 3 168
e 3 180
e 3 181
e 3 187
e 4 19
e 4 25
e 4 31
e 4 40
e 4 47
e 4 48
e 4 50
e 4 52
e 4 62
e 4 63
e 4 74
e 4 77
e 4 85
e 4 90
e 4 95
e 4 97
e 4 108
e 4 116
e 4 132
e 4 150
e 4 154
e 4 157
e 4 161
e 4 163
e 4 172
e 4 174
e 4 180
e 4 187
e 4 197
e 5 6
e 5 9
e 5 22
e 5 26
e 5 28
e 5 38
e 5 64
e 5 78
e 5 87
e 5 95
e 5 112
e 5 118
e 5 129
e 5 144
e 5 151
e 5 173
e 5 183
e 5 191
e 6 18
e 6 22
e 6 27
e 6 33
e 6 40
e 6 48
e 6 59
e 6 61
e 6 73
e 6 79
e 6 87
e 6 88
e 6 92
e 6 95
e 6 98
e 6 123
e 6 138
e 6 146
e 6 186
e 6 194
e 6 200
e 7 19
e 7 29
e 7 43
e 7 44
e 7 49
e 7 88
e 7 95
e 7 99
e 7 110
e 7 111
e 7 127
e 7 141
e 7 154
e 7 171
e 7 187
e 8 12
e 8 24
e 8 33
e 8 64
e 8 72
e 8 78
e 8 87
e 8 99
e 8 112
e 8 120
e 8 122
e 8 137
e 8 149
e 8 158
e 8 170
e 8 189
e 8 191
e 9 40
e 9 41
e 9 46
e 9 54
e 9 55
e 9 68
e 9 72
e 9 73
e 9 89
e 9 102
e 9 104
e 9 106
e 9 118
e 9 132
e 9 137
e 9 143
e 9 150
e 9 158
e 9 161
e 9 162
e 9 171
e 9 180
e 9 185
e 9 190
e 9 196
e 10 19
e 10 25
e 10 29
e 10 52
e 10 74
e 10 78
e 10 89
e 10 93
e 10 97
e 10 106
e 10 122
e 10 126
e 10 136
e 10 148
e 10 149
e 10 167
e 10 168
e 10 169
e 10 185
e 10 187
e 10 192
e 10 194
e 10 196
e 10 197
e 10 199
e 11 17
e 11 22
e 11 36
e 11 37
e 11 42
e 11 46
e 11 64
e 11 90
e 11 100
e 11 107
e 11 111
e 11 122
e 11 126
e 11 133
e 11 143
e 11 151
e 11 156
e 11 159
e 11 162
e 11 168
e 11 177
e 11 180
e 11 183
e 11 189
e 11 199
e 12 27
e 12 49
e 12 51
e 12 56
e 12 109
e 12 122
e 12 180
e 12 185
e 12 190
e 12 197
e 12 199
e 13 15
e 13 21
e 13 23
e 13 34
e 13 37
e 13 39
e 13 47
e 13 48
e 13 51
e 13 62
e 13 68
e 13 78
e 13 89
e 13 90
e 13 100
e 13 106
e 13 118
e 13 138
e 13 139
e 13 153
e 13 157
e 13 160
e 13 174
e 13 179
e 13 183
e 13 187
e 13 189
e 13 190
e 14 25
e 14 26
e 14 27
e 14 44
e 14 47
e 14 57
e 14 61
e 14 71
e 14 76
e 14 91
e 14 93
e 14 98
e 14 110
e 14 125
e 14 145
e 14 161
e 14 166
e 14 182
e 14 188
e 14 194
e 14 200
e 15 23
e 15 24
e 15 34
e 15 38
e 15 39
e 15 58
e 15 65
e 15 71
e 15 72
e 15 75
e 15 78
e 15 90
e 15 100
e 15 109
e 15 116
e 15 126
e 15 127
e 15 132
e 15 133
e 15 137
e 15 141
e 15 142
e 15 153
e 15 156
e 15 177
e 15 180
e 15 182
e 15 191
e 16 43
e 16 44
e 16 54
e 16 57
e 16 67
e 16 68
e 16 70
e 16 76
e 16 82
e 16 106
e 16 111
e 16 116
e 16 120
e 16 142
e 16 143
e 16 153
e 16 160
e 16 163
e 16 170
e 16 186
e 16 191
e 16 192
e 17 36
e 17 42
e 17 48
e 17 63
e 17 68
e 17 73
e 17 90
e 17 96
e 17 104
e 17 109
e 17 131
e 17 154
e 17 157
e 17 178
e 17 193
e 18 28
e 18 30
e 18 41
e 18 46
e 18 48
e 18 58
e 18 61
e 18 63
e 18 69
e 18 91
e 18 94
e 18 98
e 18 106
e 18 107
e 18 116
e 18 132
e 18 134
e 18 141
e 18 152
e 18 160
e 18 167
e 18 176
e 18 187
e 18 199
e 18 200
e 19 25
e 19 40
e 19 56
e 19 57
e 19 58
e 19 61
e 19 80
e 19 84
e 19 85
e 19 95
e 19 97
e 19 98
e 19 101
e 19 110
e 19 111
e 19 131
e 19 133
e 19 140
e 19 146
e 19 148
e 19 149
e 19 153
e 19 157
e 19 163
e 19 171
e 19 175
e 19 184
e 19 186
e 19 192
e 20 47
e 20 56
e 20 71
e 20 76
e 20 81
e 20 86
e 20 87
e 20 88
e 20 91
e 20 106
e 20 122
e 20 151
e 20 154
e 20 167
e 20 188
e 20 197
e 21 24
e 21 25
e 21 40
e 21 46
e 21 49
e 21 55
e 21 59
e 21 83
e 21 86
e 21 99
e 21 110
e 21 134
e 21 154
e 21 186
e 22 30
e 22 40
e 22 79
e 22 97
e 22 110
e 22 128
e 22 136
e 22 147
e 22 160
e 22 165
e 22 177
e 22 180
e 22 189
e 22 190
e 22 194
e 22 196
e 22 197
e 23 28
e 23 36
e 23 37
e 23 38
e 23 40
e 23 41
e 23 45
e 23 59
e 23 82
e 23 85
e 23 91
e 23 96
e 23 99
e 23 100
e 23 121
e 23 122
e 23 134
e 23 139
e 23 147
e 23 150
e 23 154
e 23 161
e 23 164
e 23 174
e 23 178
e 23 185
e 24 35
e 24 49
e 24 60
e 24 74
e 24 81
e 24 85
e 24 96
e 24 100
e 24 126
e 24 128
e 24 145
e 24 159
e 24 161
e 24 181
e 24 188
e 24 195
e 25 39
e 25 54
e 25 57
e 25 69
e 25 77
e 25 81
e 25 102
e 25 104
e 25 116
e 25 123
e 25 143
e 25 156
e 25 157
e 25 158
e 25 168
e 25 170
e 25 175
e 25 180
e 25 183
e 25 185
e 25 197
e 26 39
e 26 54
e 26 66
e 26 78
e 26 79
e 26 89
e 26 101
e 26 104
e 26 106
e 26 111
e 26 116
e 26 121
e 26 134
e 26 137
e 26 154
e 26 170
e 26 191
e 26 196
e 26 200
e 27 29
e 27 31
e 27 39
e 27 50
e 27 64
e 27 68
e 27 81
e 27 82
e 27 100
e 27 106
e 27 107
e 27 129
e 27 151
e 27 168
e 27 173
e 27 187
e 27 195
e 28 37
e 28 39
e 28 40
e 28 56
e 28 60
e 28 80
e 28 88
e 28 99
e 28 119
e 28 140
e 28 141
e 28 148
e 28 157
e 28 158
e 28 169
e 28 178
e 29 32
e 29 34
e 29 38
e 29 51
e 29 61
e 29 69
e 29 87
e 29 90
e 29 103
e 29 106
e 29 118
e 29 133
e 29 134
e 29 136
e 29 141
e 29 153
e 29 157
e 29 180
e 29 186
e 29 187
e 29 188
e 29 191
e 30 35
e 30 40
e 30 52
e 30 54
e 30 56
e 30 63
e 30 71
e 30 73
e 30 90
e 30 116
e 30 148
e 30 191
e 30 193
e 30 200
e 31 41
e 31 93
e 31 97
e 31 109
e 31 111
e 31 112
e 31 134
e 31 135
e 31 144
e 31 151
e 31 152
e 31 157
e 31 158
e 31 172
e 31 183
e 32 35
e 32 38
e 32 50
e 32 63
e 32 90
e 32 96
e 32 106
e 32 160
e 32 172
e 32 174
e 32 175
e 32 181
e 33 34
e 33 38
e 33 54
e 33 57
e 33 77
e 33 89
e 33 91
e 33 112
e 33 123
e 33 128
e 33 139
e 33 143
e 33 149
e 33 154
e 33 171
e 33 176
e 33 188
e 33 191
e 33 195
e 33 196
e 34 37
e 34 40
e 34 52
e 34 69
e 34 72
e 34 83
e 34 104
e 34 138
e 34 153
e 34 195
e 34 197
e 34 200
e 35 56
e 35 65
e 35 67
e 35 74
e 35 82
e 35 85
e 35 86
e 35 98
e 35 104
e 35 125
e 35 134
e 35 152
e 35 161
e 35 162
e 35 168
e 35 182
e 35 183
e 35 190
e 36 43
e 36 56
e 36 86
e 36 108
e 36 128
e 36 129
e 36 139
e 36 140
e 36 171
e 36 175
e 37 41
e 37 42
e 37 46
e 37 70
e 37 72
e 37 73
e 37 82
e 37 88
e 37 92
e 37 122
e 37 126
e 37 129
e 37 133
e 37 138
e 37 139
e 37 141
e 37 149
e 37 162
e 37 175
e 37 177
e 37 179
e 37 195
e 37 196
e 38 42
e 38 45
e 38 55
e 38 63
e 38 74
e 38 111
e 38 128
e 38 130
e 38 139
e 38 144
e 38 146
e 38 148
e 38 167
e 38 171
e 38 175
e 38 189
e 39 41
e 39 46
e 39 60
e 39 62
e 39 66
e 39 68
e 39 84
e 39 90
e 39 91
e 39 92
e 39 93
e 39 94
e 39 97
e 39 108
e 39 113
e 39 114
e 39 123
e 39 131
e 39 140
e 39 143
e 39 154
e 39 159
e 39 163
e 39 165
e 39 166
e 39 181
e 39 183
e 39 190
e 40 48
e 40 50
e 40 54
e 40 58
e 40 77
e 40 87
e 40 91
e 40 104
e 40 106
e 40 114
e 40 124
e 40 136
e 40 148
e 40 154
e 40 155
e 40 175
e 40 178
e 40 183
e 40 185
e 40 200
e 41 44
e 41 45
e 41 57
e 41 60
e 41 71
e 41 86
e 41 92
e 41 101
e 41 112
e 41 115
e 41 119
e 41 161
e 41 175
e 41 198
e 41 200
e 42 44
e 42 65
e 42 82
e 42 88
e 42 93
e 42 101
e 42 107
e 42 113
e 42 122
e 42 147
e 42 157
e 42 167
e 42 170
e 42 176
e 42 188
e 43 54
e 43 56
e 43 61
e 43 65
e 43 70
e 43 111
e 43 119
e 43 126
e 43 143
e 43 148
e 43 155
e 43 156
e 43 158
e 43 160
e 43 181
e 43 184
e 43 187
e 43 193
e 44 51
e 44 59
e 44 63
e 44 72
e 44 78
e 44 97
e 44 102
e 44 108
e 44 127
e 44 132
e 44 162
e 44 165
e 44 178
e 44 181
e 44 189
e 44 190
e 44 199
e 45 56
e 45 59
e 45 70
e 45 90
e 45 109
e 45 114
e 45 115
e 45 118
e 45 141
e 45 146
e 45 153
e 45 155
e 45 163
e 45 165
e 45 170
e 45 181
e 45 200
e 46 75
e 46 82
e 46 92
e 46 104
e 46 109
e 46 110
e 46 111
e 46 113
e 46 126
e 46 138
e 46 140
e 46 141
e 46 165
e 46 174
e 46 194
e 46 197
e 46 199
e 47 58
e 47 71
e 47 86
e 47 92
e 47 101
e 47 112
e 47 121
e 47 138
e 47 151
e 47 171
e 47 191
e 47 194
e 48 68
e 48 69
e 48 74
e 48 98
e 48 106
e 48 120
e 48 124
e 48 145
e 48 148
e 48 149
e 48 174
e 48 179
e 48 183
e 48 190
e 48 191
e 49 60
e 49 62
e 49 69
e 49 88
e 49 103
e 49 127
e 49 133
e 49 135
e 49 142
e 49 150
e 49 166
e 49 167
e 49 176
e 49 195
e 50 53
e 50 78
e 50 87
e 50 97
e 50 109
e 50 121
e 50 134
e 50 139
e 50 168
e 50 176
e 50 180
e 50 188
e 50 198
e 51 52
e 51 61
e 51 65
e 51 81
e 51 85
e 51 86
e 51 88
e 51 91
e 51 93
e 51 98
e 51 103
e 51 104
e 51 108
e 51 110
e 51 139
e 51 145
e 51 156
e 51 162
e 51 166
e 51 169
e 51 171
e 51 174
e 51 180
e 51 181
e 51 190
e 51 198
e 52 56
e 52 63
e 52 64
e 52 76
e 52 82
e 52 87
e 52 91
e 52 98
e 52 99
e 52 111
e 52 119
e 52 124
e 52 141
e 52 146
e 52 153
e 52 164
e 52 165
e 52 169
e 52 183
e 52 190
e 52 191
e 52 195
e 53 62
e 53 67
e 53 71
e 53 97
e 53 101
e 53 106
e 53 108
e 53 110
e 53 111
e 53 114
e 53 123
e 53 129
e 53 135
e 53 155
e 53 158
e 53 164
e 53 182
e 53 190
e 53 195
e 53 197
e 54 55
e 54 86
e 54 111
e 54 153
e 54 158
e 54 161
e 54 162
e 54 166
e 54 169
e 54 185
e 54 196
e 55 56
e 55 76
e 55 81
e 55 88
e 55 96
e 55 99
e 55 101
e 55 106
e 55 119
e 55 126
e 55 138
e 55 143
e 55 152
e 55 168
e 55 177
e 55 181
e 55 182
e 55 195
e 56 59
e 56 70
e 56 78
e 56 92
e 56 101
e 56 104
e 56 107
e 56 128
e 56 150
e 56 175
e 56 177
e 56 181
e 56 189
e 56 191
e 56 195
e 57 82
e 57 92
e 57 94
e 57 114
e 57 138
e 57 144
e 57 158
e 57 174
e 57 192
e 58 61
e 58 72
e 58 77
e 58 79
e 58 105
e 58 107
e 58 111
e 58 124
e 58 126
e 58 134
e 58 164
e 58 168
e 58 170
e 58 173
e 58 175
e 59 65
e 59 67
e 59 74
e 59 82
e 59 89
e 59 91
e 59 100
e 59 105
e 59 108
e 59 126
e 59 127
e 59 136
e 59 144
e 59 148
e 59 156
e 59 159
e 59 162
e 59 168
e 59 174
e 59 198
e 60 63
e 60 64
e 60 85
e 60 96
e 60 97
e 60 104
e 60 110
e 60 121
e 60 129
e 60 139
e 60 144
e 60 158
e 60 159
e 60 165
e 60 176
e 60 178
e 60 179
e 60 189
e 61 66
e 61 68
e 61 73
e 61 76
e 61 77
e 61 79
e 61 87
e 61 104
e 61 123
e 61 146
e 61 152
e 61 160
e 61 163
e 61 173
e 61 181
e 62 63
e 62 78
e 62 80
e 62 81
e 62 105
e 62 108
e 62 120
e 62 130
e 62 133
e 62 147
e 62 156
e 62 163
e 62 168
e 62 181
e 62 186
e 62 189
e 62 196
e 63 75
e 63 83
e 63 114
e 63 115
e 63 117
e 63 125
e 63 131
e 63 147
e 63 161
e 63 163
e 63 166
e 63 194
e 64 90
e 64 93
e 64 96
e 64 110
e 64 111
e 64 120
e 64 137
e 64 138
e 64 139
e 64 140
e 64 144
e 64 156
e 64 172
e 64 183
e 64 187
e 64 199
e 65 70
e 65 77
e 65 92
e 65 97
e 65 100
e 65 104
e 65 112
e 65 141
e 65 153
e 65 164
e 65 176
e 65 178
e 65 184
e 65 198
e 65 199
e 66 71
e 66 91
e 66 100
e 66 113
e 66 114
e 66 119
e 66 125
e 66 143
e 66 148
e 66 177
e 66 181
e 66 184
e 67 68
e 67 70
e 67 71
e 67 83
e 67 103
e 67 110
e 67 120
e 67 128
e 67 132
e 67 144
e 67 168
e 67 181
e 67 196
e 68 78
e 68 86
e 68 100
e 68 102
e 68 122
e 68 137
e 68 148
e 68 153
e 68 189
e 68 190
e 68 191
e 68 196
e 69 70
e 69 72
e 69 101
e 69 119
e 69 129
e 69 137
e 69 145
e 69 147
e 69 150
e 69 159
e 69 172
e 69 173
e 69 182
e 69 200
e 70 76
e 70 85
e 70 91
e 70 106
e 70 117
e 70 130
e 70 161
e 70 172
e 70 191
e 70 196
e 71 83
e 71 93
e 71 102
e 71 113
e 71 119
e 71 120
e 71 140
e 71 148
e 71 163
e 71 166
e 71 167
e 71 174
e 71 184
e 71 200
e 72 85
e 72 94
e 72 98
e 72 106
e 72 109
e 72 114
e 72 117
e 72 127
e 72 145
e 72 155
e 72 158
e 72 168
e 72 187
e 72 189
e 73 76
e 73 78
e 73 80
e 73 91
e 73 93
e 73 122
e 73 130
e 73 132
e 73 146
e 73 147
e 73 159
e 73 163
e 73 170
e 73 171
e 73 178
e 73 182
e 73 186
e 73 190
e 73 192
e 73 198
e 74 75
e 74 77
e 74 86
e 74 123
e 74 124
e 74 126
e 74 141
e 74 146
e 74 176
e 74 186
e 74 194
e 74 195
e 75 76
e 75 81
e 75 87
e 75 91
e 75 94
e 75 97
e 75 110
e 75 119
e 75 125
e 75 132
e 75 145
e 75 154
e 75 158
e 75 174
e 75 187
e 76 91
e 76 92
e 76 94
e 76 100
e 76 108
e 76 116
e 76 117
e 76 125
e 76 134
e 76 160
e 76 166
e 76 171
e 76 172
e 76 185
e 77 83
e 77 88
e 77 109
e 77 112
e 77 125
e 77 133
e 77 134
e 77 137
e 77 140
e 77 161
e 77 162
e 77 165
e 77 188
e 77 200
e 78 85
e 78 88
e 78 92
e 78 99
e 78 106
e 78 113
e 78 117
e 78 118
e 78 131
e 78 147
e 78 156
e 78 158
e 78 168
e 78 174
e 78 192
e 78 194
e 78 199
e 78 200
e 79 86
e 79 99
e 79 113
e 79 123
e 79 127
e 79 129
e 79 131
e 79 138
e 79 141
e 79 146
e 79 171
e 79 177
e 79 190
e 79 200
e 80 116
e 80 129
e 80 137
e 80 139
e 80 148
e 80 150
e 80 154
e 80 156
e 80 163
e 80 177
e 80 180
e 80 190
e 80 197
e 81 85
e 81 91
e 81 109
e 81 121
e 81 138
e 81 144
e 81 170
e 82 85
e 82 112
e 82 115
e 82 124
e 82 133
e 82 147
e 82 149
e 82 158
e 82 160
e 82 177
e 82 182
e 82 191
e 82 198
e 82 200
e 83 86
e 83 87
e 83 90
e 83 114
e 83 117
e 83 134
e 83 150
e 83 168
e 83 171
e 84 85
e 84 87
e 84 91
e 84 93
e 84 97
e 84 108
e 84 111
e 84 123
e 84 139
e 84 154
e 84 157
e 84 162
e 84 166
e 84 192
e 84 194
e 84 197
e 85 90
e 85 94
e 85 147
e 85 158
e 85 183
e 85 186
e 85 188
e 85 189
e 86 90
e 86 103
e 86 117
e 86 128
e 86 140
e 86 147
e 86 149
e 86 160
e 86 166
e 86 167
e 86 182
e 86 192
e 87 129
e 87 134
e 87 145
e 87 159
e 87 160
e 87 161
e 87 177
e 87 178
e 87 184
e 87 197
e 88 91
e 88 93
e 88 94
e 88 97
e 88 108
e 88 150
e 88 159
e 88 174
e 88 176
e 88 178
e 88 186
e 88 194
e 88 197
e 89 91
e 89 92
e 89 93
e 89 110
e 89 116
e 89 117
e 89 128
e 89 136
e 89 153
e 89 155
e 89 163
e 89 182
e 90 91
e 90 110
e 90 122
e 90 134
e 90 141
e 90 142
e 90 144
e 90 145
e 90 157
e 90 160
e 90 161
e 90 166
e 90 185
e 90 188
e 90 189
e 90 197
e 91 103
e 91 107
e 91 110
e 91 119
e 91 135
e 91 138
e 91 148
e 91 149
e 91 164
e 91 179
e 91 183
e 91 189
e 91 192
e 91 193
e 91 199
e 92 117
e 92 130
e 92 140
e 92 164
e 92 165
e 92 173
e 92 181
e 92 184
e 92 192
e 92 199
e 93 107
e 93 115
e 93 129
e 93 130
e 93 131
e 93 132
e 93 136
e 93 147
e 93 151
e 93 157
e 93 165
e 93 174
e 93 177
e 93 184
e 93 196
e 93 197
e 94 126
e 94 140
e 94 151
e 94 152
e 94 155
e 94 164
e 94 187
e 94 191
e 94 193
e 94 198
e 95 99
e 95 112
e 95 133
e 95 155
e 95 157
e 95 159
e 95 160
e 95 169
e 95 180
e 95 194
e 96 119
e 96 123
e 96 130
e 96 141
e 96 142
e 96 143
e 96 148
e 96 164
e 96 173
e 96 176
e 96 184
e 96 191
e 96 193
e 97 98
e 97 100
e 97 108
e 97 121
e 97 129
e 97 143
e 97 160
e 97 170
e 97 174
e 97 189
e 97 192
e 97 194
e 98 119
e 98 121
e 98 122
e 98 130
e 98 132
e 98 134
e 98 151
e 98 176
e 98 183
e 98 187
e 98 191
e 98 197
e 99 108
e 99 109
e 99 126
e 99 134
e 99 155
e 99 159
e 99 160
e 99 171
e 99 175
e 99 177
e 99 187
e 99 198
e 100 101
e 100 131
e 100 133
e 100 138
e 100 153
e 100 167
e 100 182
e 100 189
e 100 192
e 101 118
e 101 122
e 101 135
e 101 138
e 101 154
e 101 171
e 101 181
e 101 188
e 101 189
e 101 196
e 101 199
e 102 105
e 102 111
e 102 113
e 102 137
e 102 142
e 102 144
e 102 174
e 102 182
e 102 191
e 103 120
e 103 134
e 103 135
e 103 146
e 103 149
e 103 152
e 103 163
e 103 166
e 103 167
e 103 170
e 103 183
e 103 196
e 104 109
e 104 112
e 104 126
e 104 132
e 104 134
e 104 142
e 104 167
e 104 169
e 104 171
e 104 177
e 104 179
e 104 190
e 104 195
e 105 114
e 105 116
e 105 125
e 105 128
e 105 133
e 105 136
e 105 139
e 105 155
e 105 162
e 105 164
e 105 170
e 105 174
e 105 190
e 106 108
e 106 111
e 106 112
e 106 123
e 106 129
e 106 139
e 106 141
e 106 143
e 106 149
e 106 151
e 106 163
e 106 174
e 106 191
e 106 195
e 106 198
e 107 111
e 107 117
e 107 118
e 107 120
e 107 123
e 107 127
e 107 139
e 107 143
e 107 144
e 107 169
e 107 183
e 107 190
e 108 111
e 108 115
e 108 128
e 108 137
e 108 143
e 108 154
e 108 159
e 108 168
e 108 198
e 108 199
e 109 114
e 109 122
e 109 148
e 109 162
e 109 164
e 109 187
e 109 193
e 110 111
e 110 119
e 110 125
e 110 135
e 110 156
e 110 165
e 110 166
e 110 175
e 110 176
e 110 186
e 110 197
e 110 200
e 111 114
e 111 126
e 111 127
e 111 130
e 111 131
e 111 132
e 111 138
e 111 149
e 111 172
e 112 118
e 112 125
e 112 127
e 112 132
e 112 133
e 112 152
e 112 162
e 112 173
e 112 184
e 112 186
e 112 187
e 113 128
e 113 144
e 113 161
e 113 164
e 113 165
e 113 170
e 113 173
e 113 188
e 113 193
e 113 195
e 113 197
e 114 116
e 114 117
e 114 130
e 114 136
e 114 153
e 114 160
e 114 173
e 114 182
e 114 183
e 114 187
e 114 188
e 114 189
e 114 192
e 115 120
e 115 128
e 115 131
e 115 133
e 115 135
e 115 143
e 115 151
e 115 180
e 115 182
e 115 191
e 115 195
e 115 196
e 115 198
e 115 200
e 116 130
e 116 145
e 116 150
e 116 166
e 116 177
e 116 185
e 116 186
e 116 200
e 117 126
e 117 130
e 117 131
e 117 145
e 117 151
e 117 156
e 117 193
e 117 194
e 117 195
e 118 171
e 118 178
e 118 188
e 119 120
e 119 124
e 119 128
e 119 133
e 119 140
e 119 180
e 120 127
e 120 129
e 120 142
e 120 144
e 120 155
e 120 174
e 120 177
e 120 179
e 120 181
e 121 123
e 121 126
e 121 142
e 121 149
e 121 167
e 121 178
e 121 198
e 122 131
e 122 134
e 122 135
e 122 145
e 122 161
e 122 172
e 122 177
e 122 180
e 122 187
e 122 194
e 123 127
e 123 145
e 123 152
e 123 154
e 123 167
e 123 179
e 124 131
e 124 159
e 124 167
e 124 183
e 124 200
e 125 129
e 125 137
e 125 143
e 125 149
e 125 150
e 125 151
e 125 153
e 125 191
e 126 139
e 126 143
e 126 144
e 126 149
e 126 159
e 126 175
e 126 177
e 127 130
e 127 161
e 127 164
e 127 171
e 127 173
e 127 174
e 127 182
e 127 189
e 128 151
e 128 152
e 128 153
e 128 154
e 128 157
e 128 185
e 128 187
e 128 192
e 128 199
e 129 151
e 129 159
e 129 174
e 129 176
e 129 183
e 129 191
e 129 197
e 129 198
e 130 145
e 130 147
e 130 151
e 130 154
e 130 163
e 130 169
e 130 170
e 130 172
e 130 183
e 130 189
e 130 192
e 131 138
e 131 146
e 131 154
e 131 156
e 131 167
e 131 176
e 131 185
e 131 186
e 131 196
e 131 200
e 132 134
e 132 171
e 132 174
e 132 181
e 132 188
e 132 189
e 132 197
e 133 148
e 133 182
e 133 190
e 133 200
e 134 144
e 134 152
e 134 168
e 134 179
e 134 180
e 134 182
e 134 184
e 134 189
e 134 194
e 135 137
e 135 144
e 135 151
e 135 169
e 135 182
e 135 183
e 136 141
e 136 147
e 136 151
e 136 158
e 136 160
e 136 166
e 136 186
e 136 196
e 137 155
e 137 156
e 137 161
e 137 187
e 137 188
e 137 190
e 137 192
e 137 193
e 137 195
e 137 198
e 137 200
e 138 157
e 138 174
e 138 192
e 139 152
e 139 153
e 139 174
e 139 181
e 139 200
e 140 141
e 140 157
e 140 173
e 140 176
e 140 177
e 140 191
e 141 143
e 141 160
e 141 161
e 141 188
e 141 194
e 142 150
e 142 159
e 142 167
e 142 171
e 142 175
e 142 176
e 142 180
e 142 185
e 142 190
e 142 192
e 143 160
e 143 174
e 143 188
e 143 193
e 143 197
e 143 198
e 144 146
e 144 155
e 144 158
e 144 159
e 144 162
e 144 169
e 144 170
e 144 176
e 144 179
e 144 181
e 144 183
e 144 190
e 144 195
e 144 197
e 145 149
e 145 178
e 145 186
e 145 196
e 146 150
e 146 153
e 146 164
e 146 175
e 146 176
e 146 177
e 147 157
e 147 174
e 147 180
e 147 183
e 147 184
e 147 196
e 148 163
e 148 175
e 148 182
e 149 150
e 149 154
e 149 155
e 149 157
e 149 179
e 149 180
e 149 181
e 149 186
e 149 187
e 149 189
e 149 190
e 149 197
e 149 200
e 150 175
e 150 182
e 150 186
e 150 196
e 151 160
e 151 163
e 151 175
e 151 179
e 151 189
e 152 153
e 152 161
e 152 163
e 152 165
e 152 168
e 152 177
e 152 183
e 152 185
e 152 199
e 153 155
e 153 156
e 153 174
e 153 198
e 154 165
e 154 176
e 154 182
e 154 189
e 155 156
e 155 194
e 156 163
e 156 165
e 156 189
e 157 158
e 157 163
e 157 174
e 157 182
e 157 192
e 157 193
e 158 164
e 158 172
e 158 175
e 158 177
e 158 178
e 158 187
e 158 192
e 158 196
e 159 181
e 159 184
e 159 195
e 159 197
e 159 199
e 160 175
e 161 170
e 161 171
e 161 183
e 161 185
e 161 194
e 162 172
e 162 191
e 163 180
e 163 195
e 163 200
e 164 176
e 164 179
e 164 184
e 164 197
e 165 172
e 165 173
e 165 184
e 165 195
e 166 198
e 167 169
e 167 170
e 167 172
e 167 194
e 167 196
e 167 199
e 168 169
e 168 172
e 168 176
e 168 177
e 168 183
e 169 191
e 170 188
e 170 190
e 171 174
e 171 176
e 171 182
e 171 193
e 172 174
e 172 175
e 172 180
e 172 193
e 172 197
e 173 176
e 173 184
e 174 177
e 174 187
e 174 189
e 174 193
e 174 198
e 174 199
e 174 200
e 175 176
e 175 177
e 175 179
e 175 183
e 175 184
e 175 198
e 176 180
e 176 183
e 176 196
e 176 197
e 177 178
e 177 182
e 177 185
e 177 189
e 177 191
e 177 192
e 177 200
e 178 190
e 178 198
e 180 181
e 180 183
e 181 185
e 182 188
e 182 190
e 182 197
e 182 199
e 183 196
e 184 185
e 185 186
e 185 191
e 185 199
e 186 196
e 186 200
e 187 194
e 187 199
e 190 195
e 191 197
e 196 198
e 197 199
